
set I:= 2	3	4 5 6	7 	8	9	10	11 12 13	14	15 16	17	18	19	20 21 22 
23 24 25 26 27 28 29 30 31 32 33 34 35 36 37 38 39 40 41 42 43 44 45 46 47 48 49 50 51;
set Nodos:= 1 2	3	4 5 6	7 	8	9	10	11 12 13	14	15 16	17	18	19	20 21 22
23 24 25 26 27 28 29 30 31 32 33 34 35 36 37 38 39 40 41 42 43 44 45 46 47 48 49 50 51;

set K:= 1 2 3;
set R:= A B C;
set T:= A B C;


param: xcoord	ycoord :=
1 30 40
2 37 52
3 49 49
4 52 64
5 20 26
6 40 30
7 21 47
8 17 63
9 31 62
10 52 33
11 51 21
12 42 41
13 31 32
14 5 25
15 12 42
16 36 16
17 52 41
18 27 23
19 17 33
20 13 13
21 57 58
22 62 42
23 42 57
24 16 57
25 8 52
26 7 38
27 27 68
28 30 48
29 43 67
30 58 48
31 58 27
32 37 69
33 38 46
34 46 10
35 61 33
36 62 63
37 63 69
38 32 22
39 45 35
40 59 15
41 5 6
42 10 17
43 21 10
44 5 64
45 30 15
46 39 10
47 32 39
48 25 32
49 25 55
50 48 28
51 56 37
;

param Q:=
1   35000
2   30000
3   25000
;

param P:=
A   22000
B   23000
C   24000
;


param alfa:=
A   1
B    .70
C    .30
;

param q:  A   B   C:=
1	0	0	0
2	700	0	0
3	0	3000	0
4	0	0	1600
5	900	0	0
6	0	2100	0
7	0	0	1500
8	1900	0	0
9	0	2300	0
10	0	0	1100
11	500	0	0
12	0	1900	0
13	0	0	2900
14	2300	0	0
15	0	2100	0
16	0	0	1000
17	1500	0	0
18	0	300	0
19	0	0	4100
20	900	0	0
21	0	2800	0
22	0	0	800
23	800	0	0
24	0	1600	0
25	0	0	1000
26	2800	0	0
27	0	700	0
28	0	0	1500
29	1400	0	0
30	0	600	0
31	0	0	1900
32	1100	0	0
33	0	1200	0
34	0	0	2300
35	2600	0	0
36	0	1700	0
37	0	0	600
38	900	0	0
39	0	1500	0
40	0	0	1400
41	700	0	0
42	0	2700	0
43	0	0	1300
44	1100	0	0
45	0	1600	0
46	0	0	1000
47	500	0	0
48	0	2500	0
49	0	0	1700
50	1800	0	0
51	0	1000	0

;

param a:  A   B   C:=
1	0	0	0
2	1	0	0
3	0	1	0
4	0	0	1
5	1	0	0
6	0	1	0
7	0	0	1
8	1	0	0
9	0	1	0
10	0	0	1
11	1	0	0
12	0	1	0
13	0	0	1
14	1	0	0
15	0	1	0
16	0	0	1
17	1	0	0
18	0	1	0
19	0	0	1
20	1	0	0
21	0	1	0
22	0	0	1
23	1	0	0
24	0	1	0
25	0	0	1
26	1	0	0
27	0	1	0
28	0	0	1
29	1	0	0
30	0	1	0
31	0	0	1
32	1	0	0
33	0	1	0
34	0	0	1
35	1	0	0
36	0	1	0
37	0	0	1
38	1	0	0
39	0	1	0
40	0	0	1
41	1	0	0
42	0	1	0
43	0	0	1
44	1	0	0
45	0	1	0
46	0	0	1
47	1	0	0
48	0	1	0
49	0	0	1
50	1	0	0
51	0	1	0

;

param qu :=
1	0
2	700
3	3000
4	1600
5	900
6	2100
7	1500
8	1900
9	2300
10	1100
11	500
12	1900
13	2900
14	2300
15	2100
16	1000
17	1500
18	300
19	4100
20	900
21	2800
22	800
23	800
24	1600
25	1000
26	2800
27	700
28	1500
29	1400
30	600
31	1900
32	1100
33	1200
34	2300
35	2600
36	1700
37	600
38	900
39	1500
40	1400
41	700
42	2700
43	1300
44	1100
45	1600
46	1000
47	500
48	2500
49	1700
50	1800
51	1000

;

set IT:=
(	2	,	A	)
(	3	,	B	)
(	4	,	C	)
(	5	,	A	)
(	6	,	B	)
(	7	,	C	)
(	8	,	A	)
(	9	,	B	)
(	10	,	C	)
(	11	,	A	)
(	12	,	B	)
(	13	,	C	)
(	14	,	A	)
(	15	,	B	)
(	16	,	C	)
(	17	,	A	)
(	18	,	B	)
(	19	,	C	)
(	20	,	A	)
(	21	,	B	)
(	22	,	C	)
(	23	,	A	)
(	24	,	B	)
(	25	,	C	)
(	26	,	A	)
(	27	,	B	)
(	28	,	C	)
(	29	,	A	)
(	30	,	B	)
(	31	,	C	)
(	32	,	A	)
(	33	,	B	)
(	34	,	C	)
(	35	,	A	)
(	36	,	B	)
(	37	,	C	)
(	38	,	A	)
(	39	,	B	)
(	40	,	C	)
(	41	,	A	)
(	42	,	B	)
(	43	,	C	)
(	44	,	A	)
(	45	,	B	)
(	46	,	C	)
(	47	,	A	)
(	48	,	B	)
(	49	,	C	)
(	50	,	A	)
(	51	,	B	)
;